p cnf 1197
-21 -371
-22 -374
-23 -377
-24 -380
-25 -383
-26 -386
-27 -389
-28 -392
-29 -395
-30 -398
-31 -401
-32 -404
-33 -407
-34 -410
-35 -413
-36 -416
-37 -419
-38 -422
-39 -425
-40 -428
-41 429
-42 430
-43 431
-44 432
-45 433
-46 434
-47 -22
-47 -23
22 23 47
-48 -24
-48 -25
24 25 48
-49 -26
-49 -27
26 27 49
-50 -28
-50 -29
28 29 50
-51 -30
-51 -31
30 31 51
-52 -32
-52 -33
32 33 52
-53 -34
-53 -35
34 35 53
-54 -36
-54 -37
36 37 54
-55 -38
-55 -39
38 39 55
-56 -40
-56 -41
40 41 56
-57 -42
-57 -43
42 43 57
-58 -44
-58 -45
44 45 58
-59 47
-59 48
-47 -48 59
-60 49
-60 50
-49 -50 60
-61 51
-61 52
-51 -52 61
-62 53
-62 54
-53 -54 62
-63 55
-63 56
-55 -56 63
-64 57
-64 58
-57 -58 64
-65 59
-65 60
-59 -60 65
-66 61
-66 62
-61 -62 66
-67 63
-67 64
-63 -64 67
-68 65
-68 66
-65 -66 68
-69 -46
-69 67
46 -67 69
-70 68
-70 69
-68 -69 70
-71 -21
-71 22
21 -22 71
-72 21
-72 -22
-21 22 72
-73 -71
-73 -72
71 72 73
-74 21
-74 22
-21 -22 74
-75 -21
-75 -73
21 73 75
-76 21
-76 73
-21 -73 76
-77 -75
-77 -76
75 76 77
-78 21
-78 -73
-21 73 78
-79 -74
-79 -78
74 78 79
-80 -22
-80 23
22 -23 80
-81 22
-81 -23
-22 23 81
-82 -80
-82 -81
80 81 82
-83 22
-83 23
-22 -23 83
-84 79
-84 -82
-79 82 84
-85 -79
-85 82
79 -82 85
-86 -84
-86 -85
84 85 86
-87 -79
-87 -82
79 82 87
-88 -83
-88 -87
83 87 88
-89 -23
-89 24
23 -24 89
-90 23
-90 -24
-23 24 90
-91 -89
-91 -90
89 90 91
-92 23
-92 24
-23 -24 92
-93 88
-93 -91
-88 91 93
-94 -88
-94 91
88 -91 94
-95 -93
-95 -94
93 94 95
-96 -88
-96 -91
88 91 96
-97 -92
-97 -96
92 96 97
-98 -24
-98 25
24 -25 98
-99 24
-99 -25
-24 25 99
-100 -98
-100 -99
98 99 100
-101 24
-101 25
-24 -25 101
-102 97
-102 -100
-97 100 102
-103 -97
-103 100
97 -100 103
-104 -102
-104 -103
102 103 104
-105 -97
-105 -100
97 100 105
-106 -101
-106 -105
101 105 106
-107 -25
-107 26
25 -26 107
-108 25
-108 -26
-25 26 108
-109 -107
-109 -108
107 108 109
-110 25
-110 26
-25 -26 110
-111 106
-111 -109
-106 109 111
-112 -106
-112 109
106 -109 112
-113 -111
-113 -112
111 112 113
-114 -106
-114 -109
106 109 114
-115 -110
-115 -114
110 114 115
-116 -26
-116 27
26 -27 116
-117 26
-117 -27
-26 27 117
-118 -116
-118 -117
116 117 118
-119 26
-119 27
-26 -27 119
-120 115
-120 -118
-115 118 120
-121 -115
-121 118
115 -118 121
-122 -120
-122 -121
120 121 122
-123 -115
-123 -118
115 118 123
-124 -119
-124 -123
119 123 124
-125 -27
-125 28
27 -28 125
-126 27
-126 -28
-27 28 126
-127 -125
-127 -126
125 126 127
-128 27
-128 28
-27 -28 128
-129 124
-129 -127
-124 127 129
-130 -124
-130 127
124 -127 130
-131 -129
-131 -130
129 130 131
-132 -124
-132 -127
124 127 132
-133 -128
-133 -132
128 132 133
-134 -28
-134 29
28 -29 134
-135 28
-135 -29
-28 29 135
-136 -134
-136 -135
134 135 136
-137 28
-137 29
-28 -29 137
-138 133
-138 -136
-133 136 138
-139 -133
-139 136
133 -136 139
-140 -138
-140 -139
138 139 140
-141 -133
-141 -136
133 136 141
-142 -137
-142 -141
137 141 142
-143 -29
-143 30
29 -30 143
-144 29
-144 -30
-29 30 144
-145 -143
-145 -144
143 144 145
-146 29
-146 30
-29 -30 146
-147 142
-147 -145
-142 145 147
-148 -142
-148 145
142 -145 148
-149 -147
-149 -148
147 148 149
-150 -142
-150 -145
142 145 150
-151 -146
-151 -150
146 150 151
-152 -30
-152 31
30 -31 152
-153 30
-153 -31
-30 31 153
-154 -152
-154 -153
152 153 154
-155 30
-155 31
-30 -31 155
-156 151
-156 -154
-151 154 156
-157 -151
-157 154
151 -154 157
-158 -156
-158 -157
156 157 158
-159 -151
-159 -154
151 154 159
-160 -155
-160 -159
155 159 160
-161 -31
-161 32
31 -32 161
-162 31
-162 -32
-31 32 162
-163 -161
-163 -162
161 162 163
-164 31
-164 32
-31 -32 164
-165 160
-165 -163
-160 163 165
-166 -160
-166 163
160 -163 166
-167 -165
-167 -166
165 166 167
-168 -160
-168 -163
160 163 168
-169 -164
-169 -168
164 168 169
-170 -32
-170 33
32 -33 170
-171 32
-171 -33
-32 33 171
-172 -170
-172 -171
170 171 172
-173 32
-173 33
-32 -33 173
-174 169
-174 -172
-169 172 174
-175 -169
-175 172
169 -172 175
-176 -174
-176 -175
174 175 176
-177 -169
-177 -172
169 172 177
-178 -173
-178 -177
173 177 178
-179 -33
-179 34
33 -34 179
-180 33
-180 -34
-33 34 180
-181 -179
-181 -180
179 180 181
-182 33
-182 34
-33 -34 182
-183 178
-183 -181
-178 181 183
-184 -178
-184 181
178 -181 184
-185 -183
-185 -184
183 184 185
-186 -178
-186 -181
178 181 186
-187 -182
-187 -186
182 186 187
-188 -34
-188 35
34 -35 188
-189 34
-189 -35
-34 35 189
-190 -188
-190 -189
188 189 190
-191 34
-191 35
-34 -35 191
-192 187
-192 -190
-187 190 192
-193 -187
-193 190
187 -190 193
-194 -192
-194 -193
192 193 194
-195 -187
-195 -190
187 190 195
-196 -191
-196 -195
191 195 196
-197 -35
-197 36
35 -36 197
-198 35
-198 -36
-35 36 198
-199 -197
-199 -198
197 198 199
-200 35
-200 36
-35 -36 200
-201 196
-201 -199
-196 199 201
-202 -196
-202 199
196 -199 202
-203 -201
-203 -202
201 202 203
-204 -196
-204 -199
196 199 204
-205 -200
-205 -204
200 204 205
-206 -36
-206 37
36 -37 206
-207 36
-207 -37
-36 37 207
-208 -206
-208 -207
206 207 208
-209 36
-209 37
-36 -37 209
-210 205
-210 -208
-205 208 210
-211 -205
-211 208
205 -208 211
-212 -210
-212 -211
210 211 212
-213 -205
-213 -208
205 208 213
-214 -209
-214 -213
209 213 214
-215 -37
-215 38
37 -38 215
-216 37
-216 -38
-37 38 216
-217 -215
-217 -216
215 216 217
-218 37
-218 38
-37 -38 218
-219 214
-219 -217
-214 217 219
-220 -214
-220 217
214 -217 220
-221 -219
-221 -220
219 220 221
-222 -214
-222 -217
214 217 222
-223 -218
-223 -222
218 222 223
-224 -38
-224 39
38 -39 224
-225 38
-225 -39
-38 39 225
-226 -224
-226 -225
224 225 226
-227 38
-227 39
-38 -39 227
-228 223
-228 -226
-223 226 228
-229 -223
-229 226
223 -226 229
-230 -228
-230 -229
228 229 230
-231 -223
-231 -226
223 226 231
-232 -227
-232 -231
227 231 232
-233 -39
-233 40
39 -40 233
-234 39
-234 -40
-39 40 234
-235 -233
-235 -234
233 234 235
-236 39
-236 40
-39 -40 236
-237 232
-237 -235
-232 235 237
-238 -232
-238 235
232 -235 238
-239 -237
-239 -238
237 238 239
-240 -232
-240 -235
232 235 240
-241 -236
-241 -240
236 240 241
-242 -40
-242 41
40 -41 242
-243 40
-243 -41
-40 41 243
-244 -242
-244 -243
242 243 244
-245 40
-245 41
-40 -41 245
-246 241
-246 -244
-241 244 246
-247 -241
-247 244
241 -244 247
-248 -246
-248 -247
246 247 248
-249 -241
-249 -244
241 244 249
-250 -245
-250 -249
245 249 250
-251 -41
-251 42
41 -42 251
-252 41
-252 -42
-41 42 252
-253 -251
-253 -252
251 252 253
-254 41
-254 42
-41 -42 254
-255 250
-255 -253
-250 253 255
-256 -250
-256 253
250 -253 256
-257 -255
-257 -256
255 256 257
-258 -250
-258 -253
250 253 258
-259 -254
-259 -258
254 258 259
-260 -42
-260 43
42 -43 260
-261 42
-261 -43
-42 43 261
-262 -260
-262 -261
260 261 262
-263 42
-263 43
-42 -43 263
-264 259
-264 -262
-259 262 264
-265 -259
-265 262
259 -262 265
-266 -264
-266 -265
264 265 266
-267 -259
-267 -262
259 262 267
-268 -263
-268 -267
263 267 268
-269 -43
-269 44
43 -44 269
-270 43
-270 -44
-43 44 270
-271 -269
-271 -270
269 270 271
-272 43
-272 44
-43 -44 272
-273 268
-273 -271
-268 271 273
-274 -268
-274 271
268 -271 274
-275 -273
-275 -274
273 274 275
-276 -268
-276 -271
268 271 276
-277 -272
-277 -276
272 276 277
-278 -44
-278 45
44 -45 278
-279 44
-279 -45
-44 45 279
-280 -278
-280 -279
278 279 280
-281 44
-281 45
-44 -45 281
-282 277
-282 -280
-277 280 282
-283 -277
-283 280
277 -280 283
-284 -282
-284 -283
282 283 284
-285 -277
-285 -280
277 280 285
-286 -281
-286 -285
281 285 286
-287 -45
-287 46
45 -46 287
-288 45
-288 -46
-45 46 288
-289 -287
-289 -288
287 288 289
-290 45
-290 46
-45 -46 290
-291 286
-291 -289
-286 289 291
-292 -286
-292 289
286 -289 292
-293 -291
-293 -292
291 292 293
-294 -286
-294 -289
286 289 294
-295 -290
-295 -294
290 294 295
-296 21
-296 -77
-21 77 296
-297 -21
-297 23
21 -23 297
-298 -296
-298 -297
296 297 298
-299 21
-299 -86
-21 86 299
-300 -21
-300 24
21 -24 300
-301 -299
-301 -300
299 300 301
-302 21
-302 -95
-21 95 302
-303 -21
-303 25
21 -25 303
-304 -302
-304 -303
302 303 304
-305 21
-305 -104
-21 104 305
-306 -21
-306 26
21 -26 306
-307 -305
-307 -306
305 306 307
-308 21
-308 -113
-21 113 308
-309 -21
-309 27
21 -27 309
-310 -308
-310 -309
308 309 310
-311 21
-311 -122
-21 122 311
-312 -21
-312 28
21 -28 312
-313 -311
-313 -312
311 312 313
-314 21
-314 -131
-21 131 314
-315 -21
-315 29
21 -29 315
-316 -314
-316 -315
314 315 316
-317 21
-317 -140
-21 140 317
-318 -21
-318 30
21 -30 318
-319 -317
-319 -318
317 318 319
-320 21
-320 -149
-21 149 320
-321 -21
-321 31
21 -31 321
-322 -320
-322 -321
320 321 322
-323 21
-323 -158
-21 158 323
-324 -21
-324 32
21 -32 324
-325 -323
-325 -324
323 324 325
-326 21
-326 -167
-21 167 326
-327 -21
-327 33
21 -33 327
-328 -326
-328 -327
326 327 328
-329 21
-329 -176
-21 176 329
-330 -21
-330 34
21 -34 330
-331 -329
-331 -330
329 330 331
-332 21
-332 -185
-21 185 332
-333 -21
-333 35
21 -35 333
-334 -332
-334 -333
332 333 334
-335 21
-335 -194
-21 194 335
-336 -21
-336 36
21 -36 336
-337 -335
-337 -336
335 336 337
-338 21
-338 -203
-21 203 338
-339 -21
-339 37
21 -37 339
-340 -338
-340 -339
338 339 340
-341 21
-341 -212
-21 212 341
-342 -21
-342 38
21 -38 342
-343 -341
-343 -342
341 342 343
-344 21
-344 -221
-21 221 344
-345 -21
-345 39
21 -39 345
-346 -344
-346 -345
344 345 346
-347 21
-347 -230
-21 230 347
-348 -21
-348 40
21 -40 348
-349 -347
-349 -348
347 348 349
-350 21
-350 -239
-21 239 350
-351 -21
-351 41
21 -41 351
-352 -350
-352 -351
350 351 352
-353 21
-353 -248
-21 248 353
-354 -21
-354 42
21 -42 354
-355 -353
-355 -354
353 354 355
-356 21
-356 -257
-21 257 356
-357 -21
-357 43
21 -43 357
-358 -356
-358 -357
356 357 358
-359 21
-359 -266
-21 266 359
-360 -21
-360 44
21 -44 360
-361 -359
-361 -360
359 360 361
-362 21
-362 -275
-21 275 362
-363 -21
-363 45
21 -45 363
-364 -362
-364 -363
362 363 364
-365 21
-365 -284
-21 284 365
-366 -21
-366 46
21 -46 366
-367 -365
-367 -366
365 366 367
-368 21
-368 -293
-21 293 368
-369 1
-369 70
-1 -70 369
-370 -70
-370 71
70 -71 370
-371 -369
-371 -370
369 370 371
-372 2
-372 70
-2 -70 372
-373 -70
-373 -298
70 298 373
-374 -372
-374 -373
372 373 374
-375 3
-375 70
-3 -70 375
-376 -70
-376 -301
70 301 376
-377 -375
-377 -376
375 376 377
-378 4
-378 70
-4 -70 378
-379 -70
-379 -304
70 304 379
-380 -378
-380 -379
378 379 380
-381 5
-381 70
-5 -70 381
-382 -70
-382 -307
70 307 382
-383 -381
-383 -382
381 382 383
-384 6
-384 70
-6 -70 384
-385 -70
-385 -310
70 310 385
-386 -384
-386 -385
384 385 386
-387 7
-387 70
-7 -70 387
-388 -70
-388 -313
70 313 388
-389 -387
-389 -388
387 388 389
-390 8
-390 70
-8 -70 390
-391 -70
-391 -316
70 316 391
-392 -390
-392 -391
390 391 392
-393 9
-393 70
-9 -70 393
-394 -70
-394 -319
70 319 394
-395 -393
-395 -394
393 394 395
-396 10
-396 70
-10 -70 396
-397 -70
-397 -322
70 322 397
-398 -396
-398 -397
396 397 398
-399 11
-399 70
-11 -70 399
-400 -70
-400 -325
70 325 400
-401 -399
-401 -400
399 400 401
-402 12
-402 70
-12 -70 402
-403 -70
-403 -328
70 328 403
-404 -402
-404 -403
402 403 404
-405 13
-405 70
-13 -70 405
-406 -70
-406 -331
70 331 406
-407 -405
-407 -406
405 406 407
-408 14
-408 70
-14 -70 408
-409 -70
-409 -334
70 334 409
-410 -408
-410 -409
408 409 410
-411 15
-411 70
-15 -70 411
-412 -70
-412 -337
70 337 412
-413 -411
-413 -412
411 412 413
-414 16
-414 70
-16 -70 414
-415 -70
-415 -340
70 340 415
-416 -414
-416 -415
414 415 416
-417 17
-417 70
-17 -70 417
-418 -70
-418 -343
70 343 418
-419 -417
-419 -418
417 418 419
-420 18
-420 70
-18 -70 420
-421 -70
-421 -346
70 346 421
-422 -420
-422 -421
420 421 422
-423 19
-423 70
-19 -70 423
-424 -70
-424 -349
70 349 424
-425 -423
-425 -424
423 424 425
-426 20
-426 70
-20 -70 426
-427 -70
-427 -352
70 352 427
-428 -426
-428 -427
426 427 428
-429 -70
-429 -355
70 355 429
-430 -70
-430 -358
70 358 430
-431 -70
-431 -361
70 361 431
-432 -70
-432 -364
70 364 432
-433 -70
-433 -367
70 367 433
-434 -70
-434 368
70 -368 434
-435 -46
-435 295
46 -295 435
-436 21
-436 -435
-21 435 436
436
